(set-logic ALL)
(declare-fun seed0_T_1 () Bool)
(declare-fun seed0_var_0xINPUT_193109 () String)
(assert (and (or (= seed0_T_1 (= seed0_var_0xINPUT_193109 "Type")) (not (str.contains (str.++ seed0_var_0xINPUT_193109 "") (str.++ seed0_var_0xINPUT_193109 "w6OlJ")))) (or seed0_T_1 (not (str.prefixof (str.++ seed0_var_0xINPUT_193109 "CEpHasKZiMJWQh3SoezN") (str.++ seed0_var_0xINPUT_193109 "NkOj2mg"))))))
(check-sat)
(exit)